C:\Users\admin\PycharmProjects\msdir\ms.exe 10 20 -s 8 -r 100.0 2501 
5436

//
segsites: 8
positions: 0.0214 0.1544 0.3640 0.4172 0.5772 0.6678 0.6776 0.6857 
00101010
00001010
00100101
00100101
00100100
00101101
00100101
00101010
11111100
00101101

//
segsites: 8
positions: 0.0020 0.1605 0.1923 0.4287 0.6397 0.6491 0.6656 0.7595 
10110001
01000001
01000001
01000001
00011101
00000001
01000001
00000011
01000001
01010000

//
segsites: 8
positions: 0.2052 0.2121 0.2969 0.3671 0.4898 0.6670 0.7873 0.8210 
10000110
10000110
00000101
00000001
11000001
00000001
00101001
00110110
00010001
00010010

//
segsites: 8
positions: 0.2246 0.3047 0.4523 0.7019 0.7157 0.7924 0.7962 0.8356 
00011010
10100101
10000100
00010100
11000010
00011010
00000100
10100101
10100010
00000101

//
segsites: 8
positions: 0.1334 0.1448 0.1840 0.1849 0.2419 0.3889 0.4454 0.7226 
00111010
00111010
10110010
10111010
10000110
00111010
11110011
00111000
00110000
10111010

//
segsites: 8
positions: 0.1912 0.3579 0.4744 0.4751 0.4970 0.5090 0.5197 0.9063 
01000000
10110001
00000000
11110000
10000100
10110000
10110000
01001110
00110000
11110100

//
segsites: 8
positions: 0.0627 0.0662 0.2596 0.4035 0.5012 0.5772 0.7765 0.8160 
11010110
11011000
01010010
11011000
00100010
01011010
01010001
01010000
01001010
01010010

//
segsites: 8
positions: 0.0575 0.1382 0.2052 0.3081 0.6637 0.6981 0.9211 0.9533 
10111110
00100100
00110000
00010100
01111100
00110000
00010100
00110001
00010000
00110000

//
segsites: 8
positions: 0.1108 0.1753 0.2414 0.2860 0.2907 0.3070 0.9633 0.9984 
10010100
10010110
01101000
10010111
10010000
10110001
10110100
10010100
10110100
10101000

//
segsites: 8
positions: 0.0000 0.0100 0.0284 0.0930 0.5613 0.5917 0.7671 0.9089 
01000001
01000100
10000101
01000011
10000001
00010101
01000101
01000100
10100001
10001100

//
segsites: 8
positions: 0.1362 0.2197 0.3636 0.4546 0.5346 0.5482 0.6215 0.7400 
01011101
10000010
00000101
00100010
00000111
00000011
00100010
00000101
00100010
00100110

//
segsites: 8
positions: 0.2018 0.3123 0.3858 0.4189 0.4839 0.4871 0.7088 0.9363 
10010010
10100000
00000001
00101010
00100110
00100010
00000010
00110010
01000000
00100000

//
segsites: 8
positions: 0.0783 0.2601 0.3003 0.4065 0.4954 0.5011 0.6185 0.9296 
11010001
00000001
00001000
00000101
00110001
00000000
00000000
00000000
00000000
00000011

//
segsites: 8
positions: 0.1013 0.1469 0.3606 0.4101 0.4507 0.5857 0.7773 0.8773 
01101100
10011010
00001011
10101010
00000110
00100011
00100011
00100011
00100001
10011001

//
segsites: 8
positions: 0.0678 0.1498 0.4204 0.4821 0.5787 0.7749 0.8469 0.8735 
10000000
00000111
01001111
00010011
00100011
00000011
00000011
00000111
01000011
00000011

//
segsites: 8
positions: 0.0633 0.1670 0.3096 0.3126 0.4107 0.6313 0.6968 0.7506 
00110011
10100000
10000110
10000011
10000110
00000010
11110110
00000011
00110011
00001011

//
segsites: 8
positions: 0.0150 0.3459 0.5363 0.5924 0.6065 0.7313 0.7857 0.9910 
01000000
00011101
01000000
01000000
01000000
01011001
10011011
01000000
01100001
01011100

//
segsites: 8
positions: 0.1849 0.2077 0.2480 0.2815 0.3375 0.3396 0.3463 0.5790 
10000000
11001010
00000000
10010110
10000000
10010111
10010000
00000000
10100000
10000000

//
segsites: 8
positions: 0.0301 0.0495 0.1651 0.2075 0.3149 0.5891 0.6910 0.9563 
10000100
10100110
01000100
01000110
10000110
01011101
01000100
01000110
01000010
01000110

//
segsites: 8
positions: 0.2282 0.4706 0.4709 0.5845 0.6332 0.7067 0.7733 0.7741 
01111000
01101000
11111000
00001001
00000000
01111100
00011010
00001000
01101000
01101000
